-1.45 0.0
-1.45 -0.62
-1.45 -1.25
-1.45 -1.88
-1.45 -2.5
-0.82 -2.5
-0.82 -1.88
-0.82 -1.25
-0.82 -0.62
-0.82 0.0
-0.82 0.62
-0.82 1.25
-0.82 1.88
-0.82 2.5
-0.82 3.12
-0.82 3.75
-0.82 4.38
-0.82 5.0
-0.82 5.62
-0.82 6.25
-0.82 6.88
-0.82 7.5
-0.82 8.12
-0.82 8.75
-0.82 9.38
-0.82 10.0
-0.82 10.62
-0.82 11.25
-0.82 11.88
-0.82 12.5
-0.82 13.12
-0.82 13.75
-0.82 14.38
-0.82 15.0
-0.82 15.62
-0.82 16.25
-0.2 16.25
-0.2 15.62
-0.2 15.0
-0.2 14.38
-0.2 13.75
-0.2 13.12
-0.2 12.5
-0.2 11.88
-0.2 11.25
-0.2 10.62
-0.2 10.0
-0.2 9.38
-0.2 8.75
-0.2 8.12
-0.2 7.5
-0.2 6.88
-0.2 6.25
-0.2 5.62
-0.2 5.0
-0.2 4.38
-0.2 3.75
-0.2 3.12
-0.2 2.5
-0.2 1.88
-0.2 1.25
-0.2 0.62
-0.2 0.0
-0.2 -0.62
-0.2 -1.25
-0.2 -1.88
-0.2 -2.5
0.43 -2.5
0.43 -1.88
0.43 -1.25
0.43 -0.62
0.43 0.0
0.43 0.62
0.43 1.25
0.43 1.88
0.43 2.5
0.43 3.12
0.43 3.75
0.43 4.38
0.43 5.0
0.43 5.62
0.43 6.25
0.43 6.88
0.43 7.5
0.43 8.12
0.43 8.75
0.43 9.38
0.43 10.0
0.43 10.62
0.43 11.25
0.43 11.88
0.43 12.5
0.43 13.12
0.43 13.75
0.43 14.38
0.43 15.0
0.43 15.62
0.43 16.25
0.43 16.88
-0.2 16.88
-0.82 16.88
-1.45 16.88
-2.07 16.88
-2.7 16.88
-2.7 16.25
-2.7 15.62
-2.7 15.0
-2.7 14.38
-2.7 13.75
-2.07 13.75
-2.07 14.38
-2.07 15.0
-2.07 15.62
-2.07 16.25
-1.45 16.25
-1.45 15.62
-1.45 15.0
-1.45 14.38
-1.45 13.75
-1.45 13.12
-1.45 12.5
-1.45 11.88
-1.45 11.25
-1.45 10.62
-1.45 10.0
-1.45 9.38
-1.45 8.75
-1.45 8.12
-1.45 7.5
-1.45 6.88
-1.45 6.25
-1.45 5.62
-1.45 5.0
-1.45 4.38
-1.45 3.75
-1.45 3.12
-1.45 2.5
-1.45 1.88
-1.45 1.25
-1.45 0.62
-2.07 0.62
-2.7 0.62
-2.7 0.0
-2.7 -0.62
-2.7 -1.25
-2.07 -1.25
-2.07 -0.62
-2.07 0.0
